500 500
348 255 191 212 348 171 206 221 250 205 193 364 264 244 270 224 168 285 315 247 315 129 268 350 186 365 145 284 129 146
220 184 249 194 322 369 327 277 202 226 280 311 224 347 338 236 177 347 294 219 302 147 273 352 258 374 259 184 198 351
76560 46920 47559 41128 112056 63099 67362 61217 50500 46330 54040 113204 59136 84668 91260 52864 29736 98895 92610 54093 95130 18963 73164 123200 47988 136510 37555 52256 25542 51246